db/inputs/25406495528087145452328416126227992.smt2
(set-logic QF_FP)
(declare-const x0 (_ FloatingPoint 11 53))
(declare-const x1 (_ FloatingPoint 11 53))
(declare-const x2 (_ FloatingPoint 11 53))
(declare-const x3 (_ FloatingPoint 11 53))
(declare-const x4 (_ FloatingPoint 11 53))
(declare-const x5 (_ FloatingPoint 11 53))
(declare-const x6 (_ FloatingPoint 11 53))
(declare-const x7 (_ FloatingPoint 11 53))
(declare-const x8 (_ FloatingPoint 11 53))
(declare-const x9 (_ FloatingPoint 11 53))
(declare-const x10 (_ FloatingPoint 11 53))
(declare-const x11 (_ FloatingPoint 11 53))
(declare-const x12 (_ FloatingPoint 11 53))
(declare-const x13 (_ FloatingPoint 11 53))
(declare-const x14 (_ FloatingPoint 11 53))
(declare-const x15 (_ FloatingPoint 11 53))
(declare-const x16 (_ FloatingPoint 11 53))
(declare-const x17 (_ FloatingPoint 11 53))
(assert (fp.leq (fp.add RNE x1 x9) (fp.mul RNE x13 x0)))
(assert (fp.lt (fp.add RNE x0 x1) (fp.mul RNE x3 x11)))
(assert (fp.eq (fp.mul RNE x15 x14) (fp.sub RNE x3 x3)))
(assert (fp.leq (fp.neg x8) (fp.div RNE x6 x2)))
(assert (fp.lt (fp.neg x11) (fp.add RNE x7 x1)))
(assert (fp.eq (fp.div RNE x6 x13) (fp.mul RNE x4 x14)))
(assert (fp.gt (fp.neg x5) (fp.neg x14)))
(assert (fp.geq (fp.neg x11) (fp.add RNE x5 x6)))
(assert (fp.leq (fp.sub RNE x11 x9) (fp.div RNE x8 x9)))
(assert (fp.gt (fp.add RNE x5 x4) (fp.mul RNE x11 x15)))
(assert (fp.leq (fp.sub RNE x15 x10) (fp.add RNE x5 x13)))
(check-sat)
