db/data/25406495528087145452328416126227992.z3.out
-------------------
2500.112162433
